ACTORES = {Actor1, Actor2, Actor3, Actor4, Actor5} ;

Escenas = [| 0,1,0,0,0,0,1,0,0,10
           | 0,1,1,1,0,1,1,1,1,20
           | 1,1,1,1,0,1,0,0,1,5
           | 0,1,1,1,0,0,1,1,1,5
           | 1,0,0,0,1,1,0,0,0,15|]; 
           
Duracion = [2,1,1,1,3,4,2,3,1];


Disponibilidad =[|Actor1, 13
                 |Actor2, 14
                 |Actor3, 15
                 |Actor4, 14
                 |Actor5, 10|];

Evitar =[|Actor1, Actor2
         |Actor2, Actor3
         |Actor4, Actor5|];

%Ejecución con Gecode

% Orden de las Escenas: [5, 1, 6, 9, 4, 3, 2, 7, 8]
% Costo: 520
% Tiempo Compartido: 11
% ----------
% ==========
% Finished in 31s 398msec
